0 0 0 0
0 1 1 0
0 2 0 0
0 3 0 0
0 4 1 1
0 5 0 5
0 6 0 2
0 7 0 9
0 8 0 2
0 9 0 9
0 10 0 7
0 11 1 9
0 12 2 2
0 13 0 11
0 14 0 1
0 15 0 11
0 16 2 15
0 17 0 15
0 18 0 9
0 19 0 6
0 20 0 11
0 21 0 17
0 22 0 14
0 23 1 16
0 24 0 17
0 25 0 18
0 26 0 21
0 27 0 22
0 28 1 20
0 29 0 27
0 30 0 21
0 31 0 28
